p tw 20 147
0 1
0 2
0 6
0 7
0 12
0 11
0 17
0 3
0 18
0 19
0 8
0 16
0 5
0 13
0 14
0 4
0 15
1 2
1 3
1 7
1 4
1 15
1 6
1 11
1 16
1 5
1 19
1 14
1 13
1 9
1 17
1 18
2 8
2 13
2 4
2 7
2 14
2 18
2 9
2 12
2 6
2 16
2 19
2 10
2 11
2 17
3 4
3 5
3 7
3 15
3 8
3 14
3 18
3 12
3 11
3 6
3 10
3 17
3 9
4 5
4 15
4 6
4 7
4 8
4 9
4 18
4 14
4 11
4 10
4 12
5 19
5 12
5 7
5 8
5 13
5 18
5 6
5 17
5 16
6 7
6 11
6 12
6 14
6 10
6 18
6 9
6 17
7 12
7 15
7 9
7 16
7 8
7 10
7 13
7 14
7 17
8 9
8 10
8 11
8 12
8 14
8 15
8 13
8 18
8 19
8 17
9 10
9 13
9 14
9 16
9 12
9 17
9 18
9 19
10 11
10 17
10 18
10 19
10 14
10 16
10 12
11 12
11 16
11 17
11 14
12 14
12 18
12 19
12 13
12 15
13 14
13 15
13 19
13 17
14 15
14 18
14 19
14 17
15 16
15 17
15 18
16 17
16 18
16 19
17 18
17 19
18 19
